NAME PortOpt_n10_m4_inst_0
ROWS
 N  OBJ
 E  budget  
 G  return  
 L  uncertain_risk
 L  fixed_risk
COLUMNS
    asset[0]  budget    1
    asset[0]  return    2.2909933082269314e+00
    asset[1]  budget    1
    asset[1]  return    3.6552908256570897e+00
    asset[2]  budget    1
    asset[2]  return    4.8416623917633084e+00
    asset[3]  budget    1
    asset[3]  return    2.0761762273318811e+00
    asset[4]  budget    1
    asset[4]  return    1.1142990824934058e+00
    asset[5]  budget    1
    asset[5]  return    1.1152725073488670e+00
    asset[6]  budget    1
    asset[6]  return    4.4046273968531082e+00
    asset[7]  budget    1
    asset[7]  return    2.2378130481519771e+00
    asset[8]  budget    1
    asset[8]  return    3.8470941967706231e+00
    asset[9]  budget    1
    asset[9]  return    2.5064815149740718e+00
    return_var  OBJ       -1
    return_var  return    -1
    uncertain_risk_var  OBJ       1
    uncertain_risk_var  uncertain_risk  -1
    fixed_risk_var  OBJ       1
    fixed_risk_var  fixed_risk  -1
RHS
    RHS1      budget    1
BOUNDS
QCMATRIX   uncertain_risk
    asset[0]  asset[0]  1.9338909798408441e-02
    asset[0]  asset[1]  2.3428183917399282e-03
    asset[1]  asset[0]  2.3428183917399282e-03
    asset[0]  asset[2]  -3.3368107398128309e-02
    asset[2]  asset[0]  -3.3368107398128309e-02
    asset[0]  asset[3]  -2.9153895549116036e-02
    asset[3]  asset[0]  -2.9153895549116036e-02
    asset[0]  asset[4]  1.7756782182600669e-02
    asset[4]  asset[0]  1.7756782182600669e-02
    asset[0]  asset[5]  8.5994072234320332e-03
    asset[5]  asset[0]  8.5994072234320332e-03
    asset[0]  asset[6]  1.6793597380363262e-02
    asset[6]  asset[0]  1.6793597380363262e-02
    asset[0]  asset[7]  -3.4170660931052546e-02
    asset[7]  asset[0]  -3.4170660931052546e-02
    asset[0]  asset[8]  2.7899737802505042e-02
    asset[8]  asset[0]  2.7899737802505042e-02
    asset[0]  asset[9]  -4.5887735002175332e-03
    asset[9]  asset[0]  -4.5887735002175332e-03
    asset[1]  asset[1]  2.5156013068752192e-01
    asset[1]  asset[2]  2.0165354499238529e-02
    asset[2]  asset[1]  2.0165354499238529e-02
    asset[1]  asset[3]  4.4010296434248808e-02
    asset[3]  asset[1]  4.4010296434248808e-02
    asset[1]  asset[4]  6.2952504418700731e-03
    asset[4]  asset[1]  6.2952504418700731e-03
    asset[1]  asset[5]  1.2837240651579630e-02
    asset[5]  asset[1]  1.2837240651579630e-02
    asset[1]  asset[6]  -8.9824129153351306e-02
    asset[6]  asset[1]  -8.9824129153351306e-02
    asset[1]  asset[7]  1.0575874687748124e-01
    asset[7]  asset[1]  1.0575874687748124e-01
    asset[1]  asset[8]  4.5321480461755145e-02
    asset[8]  asset[1]  4.5321480461755145e-02
    asset[1]  asset[9]  -5.0211033386663939e-02
    asset[9]  asset[1]  -5.0211033386663939e-02
    asset[2]  asset[2]  1.1567575672857258e-01
    asset[2]  asset[3]  9.3974911128719779e-02
    asset[3]  asset[2]  9.3974911128719779e-02
    asset[2]  asset[4]  -4.5953327282520023e-02
    asset[4]  asset[2]  -4.5953327282520023e-02
    asset[2]  asset[5]  -9.2231518764932675e-03
    asset[5]  asset[2]  -9.2231518764932675e-03
    asset[2]  asset[6]  -7.5801059613966187e-02
    asset[6]  asset[2]  -7.5801059613966187e-02
    asset[2]  asset[7]  8.8549395022816918e-02
    asset[7]  asset[2]  8.8549395022816918e-02
    asset[2]  asset[8]  -7.3069249786874152e-02
    asset[8]  asset[2]  -7.3069249786874152e-02
    asset[2]  asset[9]  -1.7097038594827554e-02
    asset[9]  asset[2]  -1.7097038594827554e-02
    asset[3]  asset[3]  8.0374122339501614e-02
    asset[3]  asset[4]  -3.6976564602754655e-02
    asset[4]  asset[3]  -3.6976564602754655e-02
    asset[3]  asset[5]  -7.5468803549866032e-03
    asset[5]  asset[3]  -7.5468803549866032e-03
    asset[3]  asset[6]  -6.9204575609027680e-02
    asset[6]  asset[3]  -6.9204575609027680e-02
    asset[3]  asset[7]  8.5756254960110301e-02
    asset[7]  asset[3]  8.5756254960110301e-02
    asset[3]  asset[8]  -5.4450902164818855e-02
    asset[8]  asset[3]  -5.4450902164818855e-02
    asset[3]  asset[9]  -1.6574312296878665e-02
    asset[9]  asset[3]  -1.6574312296878665e-02
    asset[4]  asset[4]  2.0819897688167832e-02
    asset[4]  asset[5]  6.8675217693521078e-03
    asset[5]  asset[4]  6.8675217693521078e-03
    asset[4]  asset[6]  2.4698808512885952e-02
    asset[6]  asset[4]  2.4698808512885952e-02
    asset[4]  asset[7]  -3.4807262982058461e-02
    asset[7]  asset[4]  -3.4807262982058461e-02
    asset[4]  asset[8]  3.4455468515074410e-02
    asset[8]  asset[4]  3.4455468515074410e-02
    asset[4]  asset[9]  7.3904475464337655e-04
    asset[9]  asset[4]  7.3904475464337655e-04
    asset[5]  asset[5]  4.8148215355737524e-03
    asset[5]  asset[6]  2.9262777632898173e-04
    asset[6]  asset[5]  2.9262777632898173e-04
    asset[5]  asset[7]  -8.2909903288062824e-03
    asset[7]  asset[5]  -8.2909903288062824e-03
    asset[5]  asset[8]  1.2015408712440088e-02
    asset[8]  asset[5]  1.2015408712440088e-02
    asset[5]  asset[9]  -5.8549855905388713e-03
    asset[9]  asset[5]  -5.8549855905388713e-03
    asset[6]  asset[6]  7.4470517258555566e-02
    asset[6]  asset[7]  -8.2262317087440417e-02
    asset[7]  asset[6]  -8.2262317087440417e-02
    asset[6]  asset[8]  2.8542495141818100e-02
    asset[8]  asset[6]  2.8542495141818100e-02
    asset[6]  asset[9]  2.8282134504548480e-02
    asset[9]  asset[6]  2.8282134504548480e-02
    asset[7]  asset[7]  1.1553456707016907e-01
    asset[7]  asset[8]  -4.0918532125994209e-02
    asset[8]  asset[7]  -4.0918532125994209e-02
    asset[7]  asset[9]  -2.0105108005673507e-02
    asset[9]  asset[7]  -2.0105108005673507e-02
    asset[8]  asset[8]  6.2314559668888159e-02
    asset[8]  asset[9]  -4.4591134409030786e-03
    asset[9]  asset[8]  -4.4591134409030786e-03
    asset[9]  asset[9]  1.8496277117563669e-02
QCMATRIX   fixed_risk
    asset[0]  asset[0]  1.9602800881443122e-03
    asset[1]  asset[1]  2.4415659054078519e-02
    asset[2]  asset[2]  1.1913958250757745e-02
    asset[3]  asset[3]  7.8491298940408603e-03
    asset[4]  asset[4]  2.2285017456745186e-03
    asset[5]  asset[5]  4.9277486716222806e-04
    asset[6]  asset[6]  7.1389388080731857e-03
    asset[7]  asset[7]  1.2005909917753726e-02
    asset[8]  asset[8]  6.5353842458958358e-03
    asset[9]  asset[9]  1.8572072678073493e-03
ENDATA
